Route #1: 1 10 52 40 18 58 53 32 2 1
Route #2: 1 45 12 61 29 14 51 56 1
Route #3: 1 16 20 24 8 15 1
Route #4: 1 34 43 33 44 27 5 23 13 1
Route #5: 1 3 6 55 47 9 7 26 1
Route #6: 1 41 59 48 19 36 49 17 35 1
Route #7: 1 54 42 21 30 37 22 57 28 1
Route #8: 1 39 11 50 1
Route #9: 1 25 4 31 38 46 60 1
cost: 1123
